data;


param d:= 100;
param r:=5;
param p:=0.700000;
param M:=1000;
param U:=
         1         1       -1.523536e+00
         2         1       -7.326227e-01
         3         1       -1.416386e+00
         4         1        1.076206e+00
         5         1       -8.944333e-01
         6         1       -3.796913e-01
         7         1        3.719078e-01
         8         1        1.100097e+00
         9         1        5.288543e-01
        10         1       -7.396547e-01
        11         1        2.598602e-01
        12         1       -2.386237e-01
        13         1       -3.657352e-01
        14         1        6.445376e-01
        15         1        4.723183e-01
        16         1        1.499967e+00
        17         1        4.668539e-01
        18         1       -8.418137e-01
        19         1        5.736975e-01
        20         1        8.181498e-01
        21         1       -3.608502e-01
        22         1       -1.971052e-01
        23         1        8.479975e-01
        24         1       -1.981592e+00
        25         1        6.447586e-02
        26         1       -4.641656e-02
        27         1        1.127552e+00
        28         1       -2.084355e+00
        29         1       -1.884826e+00
        30         1       -1.818603e-01
        31         1        7.302756e-01
        32         1       -6.071645e-02
        33         1       -1.395605e+00
        34         1       -1.234303e-01
        35         1       -1.937085e+00
        36         1       -8.800994e-02
        37         1       -1.294708e+00
        38         1        3.659490e-01
        39         1       -5.762560e-01
        40         1       -1.451710e+00
        41         1        1.240291e+00
        42         1        1.651563e+00
        43         1        1.556855e-01
        44         1        5.270219e-01
        45         1       -7.986865e-01
        46         1       -1.532015e-01
        47         1       -3.708420e-01
        48         1        1.260248e+00
        49         1        5.026506e-01
        50         1        6.195628e-01
        51         1       -5.637245e-01
        52         1       -6.196884e-01
        53         1        9.701468e-01
        54         1        1.581930e+00
        55         1        7.122805e-01
        56         1        5.568780e-01
        57         1       -1.661537e-01
        58         1       -1.138759e+00
        59         1       -6.487303e-01
        60         1       -2.378581e-01
        61         1       -2.239389e-01
        62         1       -1.640959e+00
        63         1       -9.929011e-01
        64         1        9.302348e-01
        65         1       -7.136462e-01
        66         1        8.521751e-02
        67         1        1.283024e+00
        68         1        2.030926e-01
        69         1       -1.059394e+00
        70         1        1.969595e-01
        71         1        1.817891e+00
        72         1       -1.104450e+00
        73         1        8.105039e-01
        74         1        3.352083e-01
        75         1        1.294610e+00
        76         1        1.030046e+00
        77         1       -8.524400e-01
        78         1       -4.133049e-01
        79         1        2.124866e-01
        80         1        2.562839e-01
        81         1       -3.591549e-01
        82         1       -1.186672e+00
        83         1        1.965003e+00
        84         1        7.125051e-01
        85         1       -1.118699e+00
        86         1       -1.036901e+00
        87         1       -9.398092e-03
        88         1       -8.369848e-02
        89         1       -1.736674e+00
        90         1       -5.203831e-01
        91         1       -4.442751e-01
        92         1        8.690891e-02
        93         1       -1.035024e+00
        94         1       -8.114551e-01
        95         1       -1.146204e-01
        96         1       -5.184517e-01
        97         1        8.436932e-01
        98         1       -1.043729e+00
        99         1       -9.254390e-02
       100         1        1.824543e+00
         1         2        3.126275e-01
         2         2       -4.868168e-01
         3         2        9.115720e-01
         4         2        1.863919e+00
         5         2       -1.565169e+00
         6         2        4.945234e-01
         7         2        2.347819e-01
         8         2        8.918347e-01
         9         2        1.725652e+00
        10         2        9.377623e-01
        11         2        2.513701e-04
        12         2       -8.509808e-01
        13         2       -1.255253e-02
        14         2        5.433995e-01
        15         2       -3.934763e-01
        16         2        1.376333e+00
        17         2        1.488450e+00
        18         2       -9.383946e-01
        19         2        1.097648e+00
        20         2        1.473142e+00
        21         2        1.848460e+00
        22         2       -8.205885e-01
        23         2       -9.016976e-02
        24         2       -2.675294e-01
        25         2        4.742736e-01
        26         2        3.718639e-01
        27         2       -5.314591e-01
        28         2       -2.239133e+00
        29         2        4.910170e-01
        30         2       -1.437914e+00
        31         2       -1.739386e+00
        32         2       -2.389063e+00
        33         2        8.370043e-01
        34         2        3.439067e-01
        35         2       -2.393801e-01
        36         2        7.580308e-01
        37         2       -1.215118e+00
        38         2        2.927822e-01
        39         2        8.701592e-01
        40         2        5.940648e-01
        41         2       -8.890646e-01
        42         2       -9.230985e-02
        43         2        2.500024e-01
        44         2       -1.625442e-01
        45         2       -9.195877e-01
        46         2        3.851655e-02
        47         2       -1.308469e+00
        48         2        1.139894e+00
        49         2        7.315658e-01
        50         2       -2.761703e+00
        51         2        2.643835e-01
        52         2        1.310110e+00
        53         2       -1.022611e+00
        54         2       -3.839781e-02
        55         2        2.914638e-01
        56         2       -1.126610e+00
        57         2       -3.781655e-01
        58         2        7.551984e-01
        59         2        2.096680e+00
        60         2        6.310645e-01
        61         2       -2.478977e-02
        62         2        1.114008e+00
        63         2       -1.623274e+00
        64         2        3.810300e-01
        65         2        1.336370e+00
        66         2        1.344254e+00
        67         2       -1.702301e+00
        68         2        2.548893e-01
        69         2        3.932481e-01
        70         2       -1.935325e+00
        71         2       -8.593342e-01
        72         2       -1.764320e+00
        73         2       -9.340031e-01
        74         2        2.065733e-01
        75         2       -8.038065e-01
        76         2       -1.159216e-01
        77         2        6.674146e-01
        78         2        1.390034e-02
        79         2       -9.179182e-01
        80         2        2.974961e-02
        81         2        5.890060e-01
        82         2        6.293177e-01
        83         2        5.811694e-01
        84         2        2.469066e+00
        85         2       -1.668907e-01
        86         2       -5.384003e-01
        87         2        8.381872e-02
        88         2        7.441782e-01
        89         2        1.063965e+00
        90         2       -1.891104e-01
        91         2       -1.495586e+00
        92         2        1.012020e+00
        93         2       -1.946705e-01
        94         2       -5.132484e-01
        95         2       -8.994358e-01
        96         2        8.016363e-01
        97         2       -1.231769e+00
        98         2       -2.157301e+00
        99         2        1.209427e+00
       100         2        1.457781e+00
         1         3       -5.833867e-01
         2         3       -2.218692e+00
         3         3        9.481327e-01
         4         3       -1.166452e+00
         5         3        1.648657e+00
         6         3       -6.153685e-01
         7         3       -3.029097e-01
         8         3        1.165410e+00
         9         3        1.342342e-01
        10         3       -1.359294e+00
        11         3       -3.561727e-01
        12         3       -2.821524e-02
        13         3        2.127470e-01
        14         3        1.837681e-01
        15         3        1.559945e-01
        16         3        1.033470e-01
        17         3        4.102771e-01
        18         3       -3.482006e-02
        19         3        4.439389e-01
        20         3       -1.210368e+00
        21         3       -3.632903e-02
        22         3        8.772981e-01
        23         3       -1.055796e+00
        24         3        2.353335e+00
        25         3       -2.242378e-01
        26         3        6.012875e-01
        27         3       -7.331936e-01
        28         3       -5.601789e-02
        29         3        9.056550e-01
        30         3        5.480819e-01
        31         3        5.507489e-01
        32         3        6.295614e-01
        33         3        1.201324e+00
        34         3       -1.930940e-01
        35         3        2.510072e-01
        36         3       -3.112460e-01
        37         3        5.642519e-01
        38         3        9.614891e-01
        39         3       -1.470789e+00
        40         3        1.837869e+00
        41         3       -4.772397e-01
        42         3        1.771442e+00
        43         3       -2.755049e-01
        44         3       -7.422538e-01
        45         3       -4.577511e-01
        46         3        1.235619e+00
        47         3       -1.178285e-01
        48         3        2.187956e+00
        49         3        6.239089e-01
        50         3       -1.718699e+00
        51         3       -5.307617e-01
        52         3       -4.518880e-01
        53         3       -1.315220e+00
        54         3       -3.910351e-01
        55         3        1.806081e+00
        56         3        4.807562e-01
        57         3       -1.330555e-01
        58         3       -1.194701e-01
        59         3       -2.016860e+00
        60         3        1.055679e+00
        61         3       -1.734999e+00
        62         3        9.133065e-02
        63         3        1.221279e+00
        64         3        1.981899e+00
        65         3       -1.189523e+00
        66         3        1.509806e+00
        67         3        4.876710e-01
        68         3       -3.877596e-02
        69         3        5.695296e-01
        70         3        3.735634e-02
        71         3        7.072565e-01
        72         3       -7.393725e-01
        73         3        7.522027e-01
        74         3        9.147476e-02
        75         3       -8.690240e-01
        76         3       -9.843895e-01
        77         3        6.596337e-01
        78         3       -6.575566e-01
        79         3        6.271914e-01
        80         3        5.699772e-01
        81         3       -9.802320e-01
        82         3        5.037339e-02
        83         3        1.351833e+00
        84         3       -6.990208e-01
        85         3        1.661936e+00
        86         3       -1.088701e+00
        87         3        8.924094e-01
        88         3        1.033441e+00
        89         3        2.906186e-02
        90         3        7.053820e-02
        91         3        1.197253e+00
        92         3       -3.296547e-01
        93         3       -1.098070e+00
        94         3        8.072175e-02
        95         3       -5.875166e-01
        96         3       -1.750405e-01
        97         3        6.913020e-01
        98         3       -1.491945e+00
        99         3       -6.784845e-01
       100         3        7.933033e-01
         1         4        5.157613e-01
         2         4        6.451389e-01
         3         4       -1.110802e+00
         4         4       -1.701686e+00
         5         4       -1.002328e-01
         6         4        1.163643e+00
         7         4       -2.922420e-02
         8         4        3.023587e-02
         9         4       -1.290897e+00
        10         4       -4.046461e-01
        11         4       -1.428732e+00
        12         4       -1.162920e+00
        13         4        1.995478e-01
        14         4       -7.163448e-01
        15         4        5.952180e-01
        16         4        3.962694e-01
        17         4        6.412772e-01
        18         4        2.751859e-03
        19         4       -1.759713e+00
        20         4       -8.500687e-02
        21         4       -1.204660e-01
        22         4        1.928616e+00
        23         4       -1.942994e-01
        24         4       -1.932989e+00
        25         4       -1.020323e+00
        26         4        9.735495e-01
        27         4        7.291396e-01
        28         4        8.082914e-01
        29         4       -2.077298e-01
        30         4       -1.861595e+00
        31         4        2.900598e-03
        32         4       -1.810695e-01
        33         4        2.397627e-01
        34         4       -4.497834e-01
        35         4        6.910166e-01
        36         4       -5.177040e-02
        37         4        8.642615e-01
        38         4        9.539572e-02
        39         4       -6.419488e-01
        40         4        4.479844e-01
        41         4        1.230110e+00
        42         4       -9.189852e-01
        43         4        1.341794e+00
        44         4        5.379944e-01
        45         4        1.669178e+00
        46         4       -1.253881e+00
        47         4       -3.703170e-01
        48         4       -2.803175e-01
        49         4       -2.132722e-01
        50         4       -2.418418e-01
        51         4       -1.916588e-01
        52         4       -4.749759e-01
        53         4       -5.522931e-01
        54         4        4.050014e-01
        55         4        3.606332e-01
        56         4        4.725894e-01
        57         4        6.307093e-01
        58         4       -8.394538e-01
        59         4        5.018280e-02
        60         4       -1.581308e+00
        61         4        1.170624e-01
        62         4        5.957647e-01
        63         4       -2.205819e-01
        64         4        7.051229e-01
        65         4        2.956442e-01
        66         4        4.274733e-01
        67         4        8.317677e-01
        68         4       -4.303910e-01
        69         4       -1.842037e+00
        70         4        1.434428e+00
        71         4        4.056624e-01
        72         4       -1.500826e+00
        73         4       -1.054019e+00
        74         4        2.404423e+00
        75         4       -6.877383e-01
        76         4        1.821417e-01
        77         4       -9.391950e-02
        78         4       -1.016025e+00
        79         4        1.492247e+00
        80         4       -2.463546e-01
        81         4        2.662461e-01
        82         4       -6.097255e-01
        83         4        3.724078e-02
        84         4        1.178835e+00
        85         4        1.674362e-01
        86         4        7.144492e-01
        87         4       -8.878817e-01
        88         4        3.493409e-01
        89         4       -4.329205e-01
        90         4        1.047989e-01
        91         4        3.320693e-01
        92         4        1.225329e+00
        93         4       -3.519444e-02
        94         4        6.731509e-01
        95         4       -8.114758e-01
        96         4        2.080696e-01
        97         4       -5.637116e-01
        98         4        3.117119e-01
        99         4       -5.225193e-02
       100         4       -1.427259e+00
         1         5        1.872809e-01
         2         5       -3.674614e-01
         3         5       -8.172262e-01
         4         5       -6.890138e-01
         5         5        2.471241e+00
         6         5        5.305671e-01
         7         5       -1.294685e+00
         8         5       -9.067319e-01
         9         5        4.240159e-01
        10         5       -1.063383e-01
        11         5       -1.380323e+00
        12         5       -6.716282e-02
        13         5        4.542958e-01
        14         5       -2.807337e-01
        15         5        1.834965e+00
        16         5       -8.159034e-01
        17         5        7.787824e-01
        18         5        1.478400e+00
        19         5       -4.884259e-01
        20         5        3.419349e-01
        21         5        2.002929e+00
        22         5        2.080123e-01
        23         5       -1.365000e-01
        24         5        7.160757e-01
        25         5       -4.210864e-01
        26         5       -6.722299e-02
        27         5        1.259683e-01
        28         5       -5.550007e-02
        29         5        1.927434e+00
        30         5       -9.217760e-01
        31         5        1.611600e+00
        32         5       -1.536698e+00
        33         5       -1.813611e+00
        34         5       -1.269739e+00
        35         5        9.961832e-01
        36         5       -1.108918e+00
        37         5        7.628378e-01
        38         5        4.748188e-01
        39         5        2.539794e+00
        40         5        1.216174e+00
        41         5       -1.666746e+00
        42         5       -6.211215e-01
        43         5        1.329769e+00
        44         5       -1.335791e+00
        45         5        2.741464e-01
        46         5        4.640975e-02
        47         5       -2.140226e+00
        48         5       -8.138138e-01
        49         5        5.621060e-01
        50         5        3.424695e-01
        51         5        8.078052e-01
        52         5       -2.030532e+00
        53         5        1.447847e+00
        54         5        3.608375e-01
        55         5       -4.259362e-01
        56         5        1.742028e+00
        57         5       -3.610653e-01
        58         5        6.989368e-01
        59         5       -1.145848e+00
        60         5       -5.053574e-01
        61         5        3.937735e-01
        62         5       -1.887706e+00
        63         5        2.105566e-01
        64         5       -1.932157e-01
        65         5        5.684926e-01
        66         5       -3.462786e-02
        67         5        2.312808e-02
        68         5        1.209956e+00
        69         5        2.770174e-01
        70         5        1.369972e+00
        71         5       -1.345786e+00
        72         5        4.439330e-01
        73         5       -2.908662e-01
        74         5       -2.394173e-01
        75         5        9.826547e-01
        76         5        1.085464e+00
        77         5       -1.740819e-01
        78         5       -3.242451e-01
        79         5        2.026814e+00
        80         5       -3.622063e-01
        81         5       -1.785178e-01
        82         5        3.413067e-01
        83         5       -4.563246e-01
        84         5        3.137327e-01
        85         5        5.456984e-01
        86         5       -1.208969e+00
        87         5        1.837474e+00
        88         5       -3.705624e-01
        89         5       -1.843722e+00
        90         5        8.177309e-01
        91         5        1.344181e+00
        92         5       -7.898403e-01
        93         5        2.223005e-01
        94         5        2.231602e+00
        95         5        2.954886e-01
        96         5        6.859343e-01
        97         5       -7.913481e-01
        98         5       -2.578161e-01
        99         5        3.603288e-02
       100         5       -1.193013e+00
;

param theta:=
    1        3.468434e-01
    2       -1.099473e-01
    3        2.224218e-01
    4        9.276475e-01
    5       -9.783423e-01
;
param X_true:=
    1       -4.757306e-01
    2        3.633778e-01
    3       -6.629251e-01
    4       -9.862104e-01
    5       -2.343483e+00
    6        2.969511e-01
    7        1.453982e+00
    8        1.472673e+00
    9       -1.570581e+00
   10       -9.453353e-01
   11       -9.799421e-02
   12       -1.128856e+00
   13       -1.848299e-01
   14       -2.497975e-01
   15       -9.752797e-01
   16        1.731088e+00
   17       -6.480234e-02
   18       -1.706205e+00
   19       -9.061176e-01
   20       -4.541701e-01
   21       -2.352925e+00
   22        1.842546e+00
   23        1.436455e-01
   24       -2.680282e+00
   25       -7.751298e-01
   26        1.006536e+00
   27        8.118808e-01
   28        2.104921e-01
   29       -2.540176e+00
   30       -6.081188e-01
   31       -9.590011e-01
   32        1.727155e+00
   33        1.711334e+00
   34        6.741099e-01
   35       -9.591577e-01
   36        6.827416e-01
   37        3.863067e-02
   38       -8.252938e-02
   39       -3.749958e+00
   40       -9.116775e-01
   41        3.172172e+00
   42        7.424055e-01
   43       -2.148770e-01
   44        1.961012e+00
   45        8.888490e-01
   46       -8.771811e-01
   47        1.587849e+00
   48        1.374327e+00
   49       -6.288500e-01
   50       -5.400212e-01
   51       -1.365478e+00
   52        1.063944e+00
   53       -1.664704e+00
   54        3.828970e-01
   55        1.385123e+00
   56       -9.343961e-01
   57        8.462718e-01
   58       -1.896266e+00
   59        2.295275e-01
   60       -9.889757e-01
   61       -7.039432e-01
   62        1.687491e+00
   63       -3.732376e-01
   64        1.703101e+00
   65       -8.185735e-01
   66        6.507786e-01
   67        1.431862e+00
   68       -1.554370e+00
   69       -2.306390e+00
   70        3.074434e-01
   71        2.464127e+00
   72       -2.014060e+00
   73       -9.676228e-02
   74        2.597564e+00
   75       -1.258419e+00
   76       -8.360359e-01
   77       -3.880711e-02
   78       -7.875974e-01
   79       -3.552953e-01
   80        4.222922e-01
   81        9.391747e-02
   82       -1.410242e+00
   83        1.467086e+00
   84        6.407007e-01
   85       -4.237802e-01
   86        1.229314e+00
   87       -2.384118e+00
   88        9.803683e-01
   89        7.239084e-01
   90       -6.973719e-01
   91       -7.228402e-01
   92        1.705619e+00
   93       -7.911893e-01
   94       -1.772536e+00
   95       -1.278499e+00
   96       -6.809663e-01
   97        8.789108e-01
   98        2.216344e-03
   99       -2.917197e-01
  100        4.896203e-01
;
param X:=
    1        1.206395e+00
    2        3.633778e-01
    3        5.852670e-01
    4        6.386252e-01
    5        1.703070e-01
    6        1.540200e+00
    7        1.453982e+00
    8       -9.199626e-03
    9        6.358613e-01
   10        8.661358e-01
   11       -9.799421e-02
   12       -1.128856e+00
   13        5.947529e-01
   14       -2.497975e-01
   15       -9.752797e-01
   16        1.731088e+00
   17       -6.480234e-02
   18       -5.573327e-01
   19        1.436521e+00
   20       -4.276182e-01
   21       -2.352925e+00
   22        1.842546e+00
   23        6.765091e-01
   24       -2.091255e+00
   25       -4.128697e-01
   26        1.006536e+00
   27        8.118808e-01
   28        1.470246e+00
   29       -1.054577e+00
   30        5.745513e-01
   31        3.561293e-01
   32        1.205450e+00
   33       -3.085594e-01
   34        3.077833e-01
   35       -4.828070e-01
   36       -1.125143e-01
   37        3.863067e-02
   38        1.234693e-01
   39       -1.896255e+00
   40        1.273870e+00
   41       -1.138975e+00
   42        1.717068e+00
   43       -1.430212e-01
   44        5.339365e-01
   45        2.129701e-01
   46       -8.771811e-01
   47        1.587849e+00
   48        1.388617e+00
   49        9.450596e-01
   50       -5.400212e-01
   51       -1.365478e+00
   52        1.063944e+00
   53       -1.664704e+00
   54       -9.287018e-01
   55       -4.935556e-01
   56       -6.441092e-01
   57        5.733430e-01
   58       -1.896266e+00
   59       -4.574159e-01
   60       -3.044669e-01
   61        1.351701e+00
   62        1.687491e+00
   63        7.095314e-02
   64        1.703101e+00
   65        2.431136e+00
   66       -5.485227e-01
   67        7.827747e-01
   68       -4.768723e-01
   69       -2.306390e+00
   70        1.542968e-02
   71        1.306924e+00
   72        5.504080e-02
   73       -9.676228e-02
   74       -8.581602e-01
   75       -1.258419e+00
   76        6.296978e-01
   77       -5.149596e-01
   78        9.337449e-01
   79       -1.376321e+00
   80       -2.211051e-01
   81       -9.083897e-01
   82       -3.094635e+00
   83        1.587219e-01
   84       -2.355429e+00
   85       -1.277849e+00
   86       -1.401458e-01
   87       -2.384118e+00
   88       -3.539603e-01
   89       -3.273319e-02
   90        5.288298e-01
   91       -5.273759e-01
   92        1.705619e+00
   93       -1.488078e-01
   94        9.636511e-01
   95        9.328324e-01
   96       -9.617860e-01
   97        8.789108e-01
   98        1.292419e+00
   99       -2.917197e-01
  100        4.896203e-01
;
param outliervec:=
    1    1
    2    0
    3    1
    4    1
    5    1
    6    1
    7    0
    8    1
    9    1
   10    1
   11    0
   12    0
   13    1
   14    0
   15    0
   16    0
   17    0
   18    1
   19    1
   20    1
   21    0
   22    0
   23    1
   24    1
   25    1
   26    0
   27    0
   28    1
   29    1
   30    1
   31    1
   32    1
   33    1
   34    1
   35    1
   36    1
   37    0
   38    1
   39    1
   40    1
   41    1
   42    1
   43    1
   44    1
   45    1
   46    0
   47    0
   48    1
   49    1
   50    0
   51    0
   52    0
   53    0
   54    1
   55    1
   56    1
   57    1
   58    0
   59    1
   60    1
   61    1
   62    0
   63    1
   64    0
   65    1
   66    1
   67    1
   68    1
   69    0
   70    1
   71    1
   72    1
   73    0
   74    1
   75    0
   76    1
   77    1
   78    1
   79    1
   80    1
   81    1
   82    1
   83    1
   84    1
   85    1
   86    1
   87    0
   88    1
   89    1
   90    1
   91    1
   92    0
   93    1
   94    1
   95    1
   96    1
   97    0
   98    1
   99    0
  100    0
;